NAME : XML100_1315_13
DIMENSION : 101
NB_CLUSTERS : 3
CLUSTERING_ALG : KMedoids
CLUSTERING_PARAMS : k(2)
CLUSTERS
1 0
2 1 2 4 5 6 10 17 19 22 23 25 26 29 30 33 35 38 43 47 51 53 54 55 57 58 60 65 67 68 70 72 73 77 80 84 87 88 94 95 99 100
3 3 7 8 9 11 12 13 14 15 16 18 20 21 24 27 28 31 32 34 36 37 39 40 41 42 44 45 46 48 49 50 52 56 59 61 62 63 64 66 69 71 74 75 76 78 79 81 82 83 85 86 89 90 91 92 93 96 97 98
EOF